Normalized Data/p02_8_normalized_splitx10_0.vrp
NAME:p02_8_NORMALIZED_splitx10_
BEST_KNOWN: 0
COMMENT: 0
DIMENSION: 282
CAPACITY: 1000
EDGE_WEIGHT_FORMAT: FUNCTION
EDGE_WEIGHT_TYPE: EXACT_2D
NODE_COORD_SECTION
1 0.00000 0.00000
2 -46 -10
3 -46 -10
4 -46 -10
5 3 50
6 3 50
7 3 50
8 3 50
9 3 50
10 46 33
11 46 33
12 -27 48
13 -27 48
14 -27 48
15 -38 -34
16 -38 -34
17 -38 -34
18 19 45
19 19 45
20 19 45
21 19 45
22 -15 -11
23 -15 -11
24 0 26
25 0 26
26 18 3
27 18 3
28 18 3
29 18 26
30 18 26
31 -17 9
32 -17 9
33 -17 9
34 -17 9
35 -34 -3
36 -34 -3
37 -34 -3
38 41 -9
39 41 -9
40 41 -9
41 41 -9
42 46 -32
43 46 -32
44 46 -32
45 -33 -26
46 -33 -26
47 -33 -26
48 39 11
49 39 11
50 39 11
51 -11 -40
52 -11 -40
53 -11 -40
54 -11 -40
55 -11 -40
56 -11 -40
57 -28 27
58 -28 27
59 -28 27
60 -12 7
61 -12 7
62 41 39
63 41 39
64 41 39
65 41 39
66 -9 37
67 -9 37
68 -9 37
69 -20 49
70 -20 49
71 -20 49
72 -20 49
73 -23 38
74 -23 38
75 -23 38
76 -23 38
77 -48 48
78 -48 48
79 -48 48
80 -48 48
81 -48 48
82 -48 48
83 -48 48
84 -47 31
85 27 46
86 27 46
87 27 46
88 5 49
89 5 49
90 13 -6
91 13 -6
92 13 -6
93 13 -6
94 21 -11
95 21 -11
96 21 -11
97 21 -11
98 -46 41
99 -46 41
100 -46 41
101 -46 41
102 -22 -29
103 -22 -29
104 -22 -29
105 -43 -31
106 -43 -31
107 -43 -31
108 -43 -31
109 -43 -31
110 -36 -18
111 -36 -18
112 -36 -18
113 45 -14
114 45 -14
115 45 -14
116 45 -14
117 45 -14
118 45 -14
119 45 -14
120 42 -18
121 42 -18
122 -20 35
123 -20 35
124 -20 35
125 16 37
126 16 37
127 16 37
128 16 37
129 16 37
130 16 37
131 -42 43
132 -42 43
133 -42 43
134 -42 43
135 -42 43
136 -40 -4
137 -40 -4
138 -40 -4
139 -40 -4
140 -40 -4
141 35 -46
142 35 -46
143 35 -46
144 48 39
145 48 39
146 48 39
147 12 -1
148 12 -1
149 12 -1
150 34 7
151 34 7
152 34 7
153 -13 -36
154 -13 -36
155 -13 -36
156 -13 -36
157 25 12
158 25 12
159 25 12
160 25 12
161 -15 -28
162 -15 -28
163 -15 -28
164 2 -39
165 2 -39
166 2 -39
167 2 -39
168 -22 -2
169 -22 -2
170 -22 -2
171 -22 -2
172 -22 -2
173 -21 32
174 -21 32
175 -5 28
176 -5 28
177 -5 28
178 -44 -29
179 -44 -29
180 -44 -29
181 -44 -29
182 5 13
183 5 13
184 12 -25
185 12 -25
186 12 -25
187 12 -25
188 12 -25
189 19 -28
190 19 -28
191 19 -28
192 19 -28
193 19 -28
194 19 -28
195 -39 -10
196 -39 -10
197 -39 -10
198 -39 -10
199 -39 -10
200 -39 -10
201 -27 -15
202 -27 -15
203 -27 -15
204 -27 -15
205 -27 -15
206 -27 -15
207 39 46
208 39 46
209 -32 11
210 -32 11
211 -32 11
212 -32 11
213 -32 11
214 -32 11
215 -32 50
216 -32 50
217 -32 50
218 -32 50
219 -32 50
220 -32 50
221 4 44
222 4 44
223 4 44
224 4 44
225 4 44
226 -30 10
227 -30 10
228 -30 10
229 30 -48
230 30 -48
231 30 -48
232 30 -48
233 22 4
234 22 4
235 22 4
236 -18 -10
237 -18 -10
238 -18 -10
239 41 13
240 41 13
241 41 13
242 41 13
243 41 13
244 41 13
245 -18 6
246 -18 6
247 -18 6
248 -18 6
249 0 26
250 0 26
251 0 26
252 0 26
253 0 26
254 -5 -48
255 -5 -48
256 -5 -48
257 -5 -48
258 -5 -48
259 6 23
260 6 23
261 -47 33
262 -47 33
263 -47 33
264 -4 41
265 -4 41
266 -4 41
267 -4 41
268 -4 41
269 7 13
270 7 13
271 -40 48
272 -40 48
273 -40 48
274 -40 48
275 44 30
276 44 30
277 44 30
278 44 30
279 -14 -50
280 -14 -50
281 -14 -50
282 -14 -50
DEMAND_SECTION
1 0
2 200
3 10
4 10
5 100
6 50
7 10
8 10
9 10
10 100
11 50
12 200
13 200
14 100
15 200
16 10
17 10
18 200
19 100
20 10
21 10
22 200
23 50
24 200
25 200
26 200
27 200
28 10
29 200
30 200
31 200
32 100
33 10
34 10
35 200
36 200
37 50
38 200
39 50
40 10
41 10
42 200
43 200
44 50
45 200
46 50
47 10
48 200
49 200
50 10
51 200
52 100
53 10
54 10
55 10
56 10
57 200
58 10
59 10
60 200
61 100
62 200
63 10
64 10
65 10
66 200
67 100
68 50
69 100
70 50
71 10
72 10
73 200
74 50
75 10
76 10
77 200
78 100
79 50
80 10
81 10
82 10
83 10
84 200
85 200
86 200
87 50
88 200
89 200
90 200
91 50
92 10
93 10
94 200
95 10
96 10
97 10
98 200
99 100
100 10
101 10
102 200
103 100
104 50
105 200
106 100
107 50
108 10
109 10
110 200
111 200
112 100
113 200
114 100
115 50
116 10
117 10
118 10
119 10
120 200
121 100
122 200
123 10
124 10
125 200
126 100
127 10
128 10
129 10
130 10
131 200
132 200
133 50
134 10
135 10
136 200
137 200
138 50
139 10
140 10
141 200
142 200
143 50
144 100
145 50
146 10
147 200
148 10
149 10
150 200
151 100
152 50
153 200
154 200
155 10
156 10
157 200
158 200
159 50
160 10
161 200
162 200
163 50
164 200
165 50
166 10
167 10
168 200
169 100
170 50
171 10
172 10
173 200
174 200
175 200
176 10
177 10
178 200
179 100
180 10
181 10
182 200
183 10
184 100
185 50
186 10
187 10
188 10
189 200
190 50
191 10
192 10
193 10
194 10
195 200
196 200
197 50
198 10
199 10
200 10
201 200
202 50
203 10
204 10
205 10
206 10
207 100
208 50
209 200
210 200
211 10
212 10
213 10
214 10
215 200
216 100
217 10
218 10
219 10
220 10
221 200
222 100
223 50
224 10
225 10
226 100
227 10
228 10
229 100
230 10
231 10
232 10
233 200
234 200
235 50
236 100
237 10
238 10
239 200
240 100
241 10
242 10
243 10
244 10
245 200
246 10
247 10
248 10
249 200
250 100
251 50
252 10
253 10
254 200
255 100
256 50
257 10
258 10
259 200
260 200
261 100
262 10
263 10
264 200
265 10
266 10
267 10
268 10
269 200
270 200
271 200
272 100
273 10
274 10
275 200
276 100
277 10
278 10
279 200
280 200
281 10
282 10
DEPOT_SECTION
1
-1
EOF