Normalized Data/p02_8_normalized_splitx10_0.sol
281 -5 7 4 6 8 87 88 221 224 222 223 220 -15 16 14 106 104 107 108 105 177 178 179 180 -18 20 19 17 85 86 84 206 207 -21 101 103 102 161 160 162 -22 46 45 44 109 110 111 205 203 204 235 237 -27 233 234 232 159 157 156 158 -28 29 126 128 125 124 127 129 182 181 -43 41 42 93 95 96 94 91 92 89 90 -50 278 280 281 279 256 254 257 255 253 -56 208 210 213 212 211 209 168 167 169 -57 58 131 132 81 76 78 77 79 82 80 270 272 273 271 217 218 -59 60 30 32 33 31 245 244 246 247 -62 63 64 61 143 145 144 10 9 274 276 277 275 241 240 239 243 242 -69 71 68 70 13 12 11 219 216 214 215 -120 119 113 117 115 114 116 112 118 38 39 40 37 147 148 -121 122 123 72 75 74 73 173 172 -133 130 134 97 100 99 98 260 262 261 83 227 225 226 -138 136 139 137 135 34 35 36 171 170 -146 25 26 269 268 -150 149 151 47 49 48 238 -153 152 155 154 51 52 54 55 53 165 166 164 163 184 183 185 -176 174 175 66 65 67 266 264 265 263 267 251 249 252 250 -186 187 230 229 231 228 140 141 142 192 189 188 191 193 190 -195 196 199 198 194 197 2 3 1 201 202 200 236 -248 24 23 259 258 0 





OBJ=
2410.676
BEST_KNOWN=
0.000